50
     9    81    92    60     9    14    73    82    43    94    78    50    38    49    41    63    62    71    88    33    21    20    33    90    66    20    84    79    84    60    38    59     5    97    81     6     1    52    93    13    82    10    42    85   100    26    87    47    46    16
     8     4     5     4     8     2     7    10     9     2     3     9     8     7     3     2     3     7     1     7     5     3     2     5     5     6     5     3    10     6     7     2     6     3     2     8     2     5     3     1    10     3     7     7     4     5     2     7     8    10
  1531  1680   826   672  1137   521  1303   981  1200  1837   343  1191  1842  1045   610  1645  1169   543   676  1831  1740  1853   282  1732  1791  1759  1587   780  1708   473  1610   806  1664   983  1489  1786  1673  1191   528  1589   840  1274   647  1337   611   631   429   343   822   434
